c *********************************
c * Circuit generated by BenCGen
c *
c * NonRestoringArrayDivider_5
c *
c * Ports with 1 gate(s): 6
c * Ports with 2 gate(s): 151
c * Total gates: 157
c *********************************
p cnf 176 540
1 30 0
-1 -30 0
1 -29 0
30 -29 0
-1 -30 29 0
29 31 0
-29 -31 0
29 -25 0
-29 25 0
29 -26 0
-29 26 0
29 -27 0
-29 27 0
29 -28 0
-29 28 0
31 10 -38 0
-31 10 38 0
31 -10 38 0
-31 -10 -38 0
5 38 -39 0
-5 38 39 0
5 -38 39 0
-5 -38 -39 0
39 31 -32 0
-39 31 32 0
39 -31 32 0
-39 -31 -32 0
31 -40 0
39 -40 0
-31 -39 40 0
38 -41 0
5 -41 0
-38 -5 41 0
-40 37 0
-41 37 0
40 41 -37 0
31 11 -43 0
-31 11 43 0
31 -11 43 0
-31 -11 -43 0
6 43 -44 0
-6 43 44 0
6 -43 44 0
-6 -43 -44 0
44 37 -33 0
-44 37 33 0
44 -37 33 0
-44 -37 -33 0
37 -45 0
44 -45 0
-37 -44 45 0
43 -46 0
6 -46 0
-43 -6 46 0
-45 42 0
-46 42 0
45 46 -42 0
31 12 -48 0
-31 12 48 0
31 -12 48 0
-31 -12 -48 0
7 48 -49 0
-7 48 49 0
7 -48 49 0
-7 -48 -49 0
49 42 -34 0
-49 42 34 0
49 -42 34 0
-49 -42 -34 0
42 -50 0
49 -50 0
-42 -49 50 0
48 -51 0
7 -51 0
-48 -7 51 0
-50 47 0
-51 47 0
50 51 -47 0
31 13 -53 0
-31 13 53 0
31 -13 53 0
-31 -13 -53 0
8 53 -54 0
-8 53 54 0
8 -53 54 0
-8 -53 -54 0
54 47 -35 0
-54 47 35 0
54 -47 35 0
-54 -47 -35 0
47 -55 0
54 -55 0
-47 -54 55 0
53 -56 0
8 -56 0
-53 -8 56 0
-55 52 0
-56 52 0
55 56 -52 0
31 14 -57 0
-31 14 57 0
31 -14 57 0
-31 -14 -57 0
9 57 -58 0
-9 57 58 0
9 -57 58 0
-9 -57 -58 0
58 52 -36 0
-58 52 36 0
58 -52 36 0
-58 -52 -36 0
52 -59 0
58 -59 0
-52 -58 59 0
57 -60 0
9 -60 0
-57 -9 60 0
-59 19 0
-60 19 0
59 60 -19 0
19 10 -67 0
-19 10 67 0
19 -10 67 0
-19 -10 -67 0
4 67 -68 0
-4 67 68 0
4 -67 68 0
-4 -67 -68 0
68 19 -61 0
-68 19 61 0
68 -19 61 0
-68 -19 -61 0
19 -69 0
68 -69 0
-19 -68 69 0
67 -70 0
4 -70 0
-67 -4 70 0
-69 66 0
-70 66 0
69 70 -66 0
19 11 -72 0
-19 11 72 0
19 -11 72 0
-19 -11 -72 0
32 72 -73 0
-32 72 73 0
32 -72 73 0
-32 -72 -73 0
73 66 -62 0
-73 66 62 0
73 -66 62 0
-73 -66 -62 0
66 -74 0
73 -74 0
-66 -73 74 0
72 -75 0
32 -75 0
-72 -32 75 0
-74 71 0
-75 71 0
74 75 -71 0
19 12 -77 0
-19 12 77 0
19 -12 77 0
-19 -12 -77 0
33 77 -78 0
-33 77 78 0
33 -77 78 0
-33 -77 -78 0
78 71 -63 0
-78 71 63 0
78 -71 63 0
-78 -71 -63 0
71 -79 0
78 -79 0
-71 -78 79 0
77 -80 0
33 -80 0
-77 -33 80 0
-79 76 0
-80 76 0
79 80 -76 0
19 13 -82 0
-19 13 82 0
19 -13 82 0
-19 -13 -82 0
34 82 -83 0
-34 82 83 0
34 -82 83 0
-34 -82 -83 0
83 76 -64 0
-83 76 64 0
83 -76 64 0
-83 -76 -64 0
76 -84 0
83 -84 0
-76 -83 84 0
82 -85 0
34 -85 0
-82 -34 85 0
-84 81 0
-85 81 0
84 85 -81 0
19 14 -86 0
-19 14 86 0
19 -14 86 0
-19 -14 -86 0
35 86 -87 0
-35 86 87 0
35 -86 87 0
-35 -86 -87 0
87 81 -65 0
-87 81 65 0
87 -81 65 0
-87 -81 -65 0
81 -88 0
87 -88 0
-81 -87 88 0
86 -89 0
35 -89 0
-86 -35 89 0
-88 18 0
-89 18 0
88 89 -18 0
18 10 -96 0
-18 10 96 0
18 -10 96 0
-18 -10 -96 0
3 96 -97 0
-3 96 97 0
3 -96 97 0
-3 -96 -97 0
97 18 -90 0
-97 18 90 0
97 -18 90 0
-97 -18 -90 0
18 -98 0
97 -98 0
-18 -97 98 0
96 -99 0
3 -99 0
-96 -3 99 0
-98 95 0
-99 95 0
98 99 -95 0
18 11 -101 0
-18 11 101 0
18 -11 101 0
-18 -11 -101 0
61 101 -102 0
-61 101 102 0
61 -101 102 0
-61 -101 -102 0
102 95 -91 0
-102 95 91 0
102 -95 91 0
-102 -95 -91 0
95 -103 0
102 -103 0
-95 -102 103 0
101 -104 0
61 -104 0
-101 -61 104 0
-103 100 0
-104 100 0
103 104 -100 0
18 12 -106 0
-18 12 106 0
18 -12 106 0
-18 -12 -106 0
62 106 -107 0
-62 106 107 0
62 -106 107 0
-62 -106 -107 0
107 100 -92 0
-107 100 92 0
107 -100 92 0
-107 -100 -92 0
100 -108 0
107 -108 0
-100 -107 108 0
106 -109 0
62 -109 0
-106 -62 109 0
-108 105 0
-109 105 0
108 109 -105 0
18 13 -111 0
-18 13 111 0
18 -13 111 0
-18 -13 -111 0
63 111 -112 0
-63 111 112 0
63 -111 112 0
-63 -111 -112 0
112 105 -93 0
-112 105 93 0
112 -105 93 0
-112 -105 -93 0
105 -113 0
112 -113 0
-105 -112 113 0
111 -114 0
63 -114 0
-111 -63 114 0
-113 110 0
-114 110 0
113 114 -110 0
18 14 -115 0
-18 14 115 0
18 -14 115 0
-18 -14 -115 0
64 115 -116 0
-64 115 116 0
64 -115 116 0
-64 -115 -116 0
116 110 -94 0
-116 110 94 0
116 -110 94 0
-116 -110 -94 0
110 -117 0
116 -117 0
-110 -116 117 0
115 -118 0
64 -118 0
-115 -64 118 0
-117 17 0
-118 17 0
117 118 -17 0
17 10 -125 0
-17 10 125 0
17 -10 125 0
-17 -10 -125 0
2 125 -126 0
-2 125 126 0
2 -125 126 0
-2 -125 -126 0
126 17 -119 0
-126 17 119 0
126 -17 119 0
-126 -17 -119 0
17 -127 0
126 -127 0
-17 -126 127 0
125 -128 0
2 -128 0
-125 -2 128 0
-127 124 0
-128 124 0
127 128 -124 0
17 11 -130 0
-17 11 130 0
17 -11 130 0
-17 -11 -130 0
90 130 -131 0
-90 130 131 0
90 -130 131 0
-90 -130 -131 0
131 124 -120 0
-131 124 120 0
131 -124 120 0
-131 -124 -120 0
124 -132 0
131 -132 0
-124 -131 132 0
130 -133 0
90 -133 0
-130 -90 133 0
-132 129 0
-133 129 0
132 133 -129 0
17 12 -135 0
-17 12 135 0
17 -12 135 0
-17 -12 -135 0
91 135 -136 0
-91 135 136 0
91 -135 136 0
-91 -135 -136 0
136 129 -121 0
-136 129 121 0
136 -129 121 0
-136 -129 -121 0
129 -137 0
136 -137 0
-129 -136 137 0
135 -138 0
91 -138 0
-135 -91 138 0
-137 134 0
-138 134 0
137 138 -134 0
17 13 -140 0
-17 13 140 0
17 -13 140 0
-17 -13 -140 0
92 140 -141 0
-92 140 141 0
92 -140 141 0
-92 -140 -141 0
141 134 -122 0
-141 134 122 0
141 -134 122 0
-141 -134 -122 0
134 -142 0
141 -142 0
-134 -141 142 0
140 -143 0
92 -143 0
-140 -92 143 0
-142 139 0
-143 139 0
142 143 -139 0
17 14 -144 0
-17 14 144 0
17 -14 144 0
-17 -14 -144 0
93 144 -145 0
-93 144 145 0
93 -144 145 0
-93 -144 -145 0
145 139 -123 0
-145 139 123 0
145 -139 123 0
-145 -139 -123 0
139 -146 0
145 -146 0
-139 -145 146 0
144 -147 0
93 -147 0
-144 -93 147 0
-146 16 0
-147 16 0
146 147 -16 0
16 10 -149 0
-16 10 149 0
16 -10 149 0
-16 -10 -149 0
1 149 -150 0
-1 149 150 0
1 -149 150 0
-1 -149 -150 0
150 16 -20 0
-150 16 20 0
150 -16 20 0
-150 -16 -20 0
16 -151 0
150 -151 0
-16 -150 151 0
149 -152 0
1 -152 0
-149 -1 152 0
-151 148 0
-152 148 0
151 152 -148 0
16 11 -154 0
-16 11 154 0
16 -11 154 0
-16 -11 -154 0
119 154 -155 0
-119 154 155 0
119 -154 155 0
-119 -154 -155 0
155 148 -21 0
-155 148 21 0
155 -148 21 0
-155 -148 -21 0
148 -156 0
155 -156 0
-148 -155 156 0
154 -157 0
119 -157 0
-154 -119 157 0
-156 153 0
-157 153 0
156 157 -153 0
16 12 -159 0
-16 12 159 0
16 -12 159 0
-16 -12 -159 0
120 159 -160 0
-120 159 160 0
120 -159 160 0
-120 -159 -160 0
160 153 -22 0
-160 153 22 0
160 -153 22 0
-160 -153 -22 0
153 -161 0
160 -161 0
-153 -160 161 0
159 -162 0
120 -162 0
-159 -120 162 0
-161 158 0
-162 158 0
161 162 -158 0
16 13 -164 0
-16 13 164 0
16 -13 164 0
-16 -13 -164 0
121 164 -165 0
-121 164 165 0
121 -164 165 0
-121 -164 -165 0
165 158 -23 0
-165 158 23 0
165 -158 23 0
-165 -158 -23 0
158 -166 0
165 -166 0
-158 -165 166 0
164 -167 0
121 -167 0
-164 -121 167 0
-166 163 0
-167 163 0
166 167 -163 0
16 14 -168 0
-16 14 168 0
16 -14 168 0
-16 -14 -168 0
122 168 -169 0
-122 168 169 0
122 -168 169 0
-122 -168 -169 0
169 163 -24 0
-169 163 24 0
169 -163 24 0
-169 -163 -24 0
163 -170 0
169 -170 0
-163 -169 170 0
168 -171 0
122 -171 0
-168 -122 171 0
-170 15 0
-171 15 0
170 171 -15 0
